networks/zoo_118_2738/zoo_118_2738-lower.txt
Number of groups: 64
Flow 48: {48 49 0} {49 108 1} 
Flow 54: {1 34 0} {34 55 1} 
Flow 56: {57 116 0} 
Flow 58: {15 45 0} {45 59 1} {59 118 2} 
Flow 78: {2 5 0} {5 11 1} {11 22 2} {22 81 3} 
Flow 163: {3 34 0} {34 36 1} {36 39 2} {39 53 3} {53 112 4} 
Flow 180: {4 36 0} {36 25 1} {25 84 2} 
Flow 215: {22 20 0} {20 79 1} 
Flow 235: {54 19 0} {19 40 1} {40 99 2} 
Flow 238: {11 43 0} 
Flow 274: {6 54 0} {54 28 1} {28 87 2} 
Flow 277: {31 90 0} 
Flow 333: {7 44 1} {44 11 2} {11 45 3} {45 104 4} 
Flow 383: {8 5 0} {5 54 1} {54 58 2} {58 117 3} 
Flow 404: {9 23 0} {23 82 1} 
Flow 405: {23 22 0} {22 24 1} {24 83 2} 
Flow 486: {10 57 0} {57 36 1} {36 16 2} {16 52 3} {52 111 4} 
Flow 552: {12 11 0} {11 54 1} {54 6 2} {6 65 3} 
Flow 582: {13 21 0} {21 22 1} {22 23 2} {23 9 3} {9 68 4} 
Flow 634: {29 30 0} {30 89 1} 
Flow 643: {14 29 0} {29 58 1} {58 39 2} {39 98 3} 
Flow 761: {16 34 0} {34 51 1} {51 110 2} 
Flow 789: {17 33 0} {33 18 1} {18 55 2} {55 37 3} 
Flow 931: {20 22 0} {22 11 1} {11 44 2} {44 103 3} 
Flow 1070: {45 15 0} {15 33 1} {33 31 2} {31 32 3} {32 91 4} 
Flow 1085: {19 48 0} {48 47 1} {47 106 2} 
Flow 1103: {21 13 0} {13 72 1} 
Flow 1109: {24 22 0} {22 19 1} {19 78 2} 
Flow 1179: {25 36 0} {36 50 1} {50 109 2} 
Flow 1217: {26 36 0} {36 37 1} {37 96 2} 
Flow 1225: {34 15 0} {15 48 1} {48 46 2} {46 105 3} 
Flow 1276: {27 15 0} {15 54 1} {54 43 2} {43 102 3} 
Flow 1297: {28 54 0} {54 11 1} {11 70 2} 
Flow 1395: {30 29 0} {29 15 1} {15 74 2} 
Flow 1456: {32 31 0} {31 33 1} {33 34 2} {34 1 3} {1 60 4} 
Flow 1663: {35 36 0} {36 55 1} {55 114 2} 
Flow 1664: {35 33 0} {33 15 1} {15 56 2} {56 115 3} 
Flow 1728: {37 36 0} {36 54 1} {54 5 2} {5 64 3} 
Flow 1740: {37 55 0} {55 18 1} {18 77 2} 
Flow 1757: {36 35 0} 
Flow 1889: {40 19 0} {19 42 1} {42 101 2} 
Flow 1932: {41 48 0} {48 107 1} 
Flow 1958: {42 19 0} {19 54 1} {54 36 2} {36 95 3} 
Flow 1971: {43 11 0} {11 5 1} {5 2 2} {2 61 3} 
Flow 1976: {43 54 0} {54 7 1} {7 66 2} 
Flow 2052: {44 7 0} {7 54 1} {54 15 2} {15 27 3} {27 86 4} 
Flow 2137: {46 48 0} {48 15 1} {15 29 2} {29 14 3} {14 73 4} 
Flow 2180: {47 48 0} {48 19 1} {19 22 2} {22 21 3} {21 80 4} 
Flow 2291: {49 48 0} {48 41 1} {41 100 2} 
Flow 2342: {50 36 0} {36 38 1} {38 97 2} 
Flow 2394: {51 34 0} {34 33 1} {33 35 2} {35 94 3} 
Flow 2418: {52 16 0} {16 36 1} {36 4 2} {4 63 3} 
Flow 2454: {38 58 0} 
Flow 2471: {53 39 0} {39 58 1} {58 29 2} {29 88 3} 
Flow 2474: {39 36 0} {36 34 1} {34 93 2} 
Flow 2548: {55 34 0} {34 3 1} {3 62 2} 
Flow 2553: {5 8 0} {8 67 1} 
Flow 2555: {55 36 0} {36 57 1} {57 10 2} {10 69 3} 
Flow 2562: {18 33 0} {33 17 1} {17 76 2} 
Flow 2612: {56 15 0} {15 34 1} {34 16 2} {16 75 3} 
Flow 2620: {33 92 0} 
Flow 2657: {58 38 0} {38 36 1} {36 26 2} {26 85 3} 
Flow 2684: {58 54 0} {54 113 1} 
Flow 2697: {59 45 0} {45 11 1} {11 12 2} {12 71 3} 
Time taken running everything: 13 seconds
