networks/zoo_118_2738/zoo_118_2738-lower.sol
<?xml version = "1.0" encoding="UTF-8" standalone="yes"?>
<CPLEXSolution version="1.2">
 <header
   problemName="networks/zoo_118_2738/zoo_118_2738-lower.lp"
   solutionName="incumbent"
   solutionIndex="-1"
   objectiveValue="59"
   solutionTypeValue="3"
   solutionTypeString="primal"
   solutionStatusValue="101"
   solutionStatusString="integer optimal solution"
   solutionMethodString="mip"
   primalFeasible="1"
   dualFeasible="1"
   MIPNodes="0"
   MIPIterations="0"
   writeLevel="3"/>
 <quality
   epInt="1.0000000000000001e-05"
   epRHS="9.9999999999999995e-07"
   maxIntInfeas="0"
   maxPrimalInfeas="0"
   maxX="1"
   maxSlack="1"/>
 <variables>
  <variable name="Y(1,2)" index="1" value="1"/>
  <variable name="Y(2,3)" index="120" value="1"/>
  <variable name="Y(3,4)" index="239" value="1"/>
  <variable name="Y(4,5)" index="358" value="1"/>
  <variable name="Y(5,6)" index="477" value="1"/>
  <variable name="Y(6,7)" index="596" value="1"/>
  <variable name="Y(7,8)" index="715" value="1"/>
  <variable name="Y(8,9)" index="834" value="1"/>
  <variable name="Y(9,10)" index="953" value="1"/>
  <variable name="Y(10,11)" index="1072" value="1"/>
  <variable name="Y(11,12)" index="1191" value="1"/>
  <variable name="Y(12,13)" index="1310" value="1"/>
  <variable name="Y(13,14)" index="1429" value="1"/>
  <variable name="Y(14,15)" index="1548" value="1"/>
  <variable name="Y(15,16)" index="1667" value="1"/>
  <variable name="Y(16,17)" index="1786" value="1"/>
  <variable name="Y(17,18)" index="1905" value="1"/>
  <variable name="Y(18,19)" index="2024" value="1"/>
  <variable name="Y(19,20)" index="2143" value="1"/>
  <variable name="Y(20,21)" index="2262" value="1"/>
  <variable name="Y(21,22)" index="2381" value="1"/>
  <variable name="Y(22,23)" index="2500" value="1"/>
  <variable name="Y(23,24)" index="2619" value="1"/>
  <variable name="Y(24,25)" index="2738" value="1"/>
  <variable name="Y(25,26)" index="2857" value="1"/>
  <variable name="Y(26,27)" index="2976" value="1"/>
  <variable name="Y(27,28)" index="3095" value="1"/>
  <variable name="Y(28,29)" index="3214" value="1"/>
  <variable name="Y(29,30)" index="3333" value="1"/>
  <variable name="Y(30,31)" index="3452" value="1"/>
  <variable name="Y(31,32)" index="3571" value="1"/>
  <variable name="Y(32,33)" index="3690" value="1"/>
  <variable name="Y(33,34)" index="3809" value="1"/>
  <variable name="Y(34,35)" index="3928" value="1"/>
  <variable name="Y(35,36)" index="4047" value="1"/>
  <variable name="Y(36,37)" index="4166" value="1"/>
  <variable name="Y(37,38)" index="4285" value="1"/>
  <variable name="Y(38,39)" index="4404" value="1"/>
  <variable name="Y(39,40)" index="4523" value="1"/>
  <variable name="Y(40,41)" index="4642" value="1"/>
  <variable name="Y(41,42)" index="4761" value="1"/>
  <variable name="Y(42,43)" index="4880" value="1"/>
  <variable name="Y(43,44)" index="4999" value="1"/>
  <variable name="Y(44,45)" index="5118" value="1"/>
  <variable name="Y(45,46)" index="5237" value="1"/>
  <variable name="Y(46,47)" index="5356" value="1"/>
  <variable name="Y(47,48)" index="5475" value="1"/>
  <variable name="Y(48,49)" index="5594" value="1"/>
  <variable name="Y(49,50)" index="5713" value="1"/>
  <variable name="Y(50,51)" index="5832" value="1"/>
  <variable name="Y(51,52)" index="5951" value="1"/>
  <variable name="Y(52,53)" index="6070" value="1"/>
  <variable name="Y(53,54)" index="6189" value="1"/>
  <variable name="Y(54,55)" index="6308" value="1"/>
  <variable name="Y(55,56)" index="6427" value="1"/>
  <variable name="Y(56,57)" index="6546" value="1"/>
  <variable name="Y(57,58)" index="6665" value="1"/>
  <variable name="Y(58,59)" index="6784" value="1"/>
  <variable name="Y(59,1)" index="6844" value="1"/>
  <variable name="X(1,34,1)" index="323084" value="1"/>
  <variable name="X(1,60,59)" index="325880" value="1"/>
  <variable name="X(2,5,59)" index="328618" value="1"/>
  <variable name="X(2,61,1)" index="331298" value="1"/>
  <variable name="X(3,34,113)" index="334148" value="1"/>
  <variable name="X(3,62,2)" index="336775" value="1"/>
  <variable name="X(4,36,169)" index="339680" value="1"/>
  <variable name="X(4,63,3)" index="342252" value="1"/>
  <variable name="X(5,2,1)" index="344988" value="1"/>
  <variable name="X(5,8,7)" index="347732" value="1"/>
  <variable name="X(5,11,65)" index="350528" value="1"/>
  <variable name="X(5,54,59)" index="353260" value="1"/>
  <variable name="X(5,64,4)" index="355943" value="1"/>
  <variable name="X(6,54,254)" index="358931" value="1"/>
  <variable name="X(6,65,5)" index="361420" value="1"/>
  <variable name="X(7,44,289)" index="364442" value="1"/>
  <variable name="X(7,54,301)" index="367192" value="1"/>
  <variable name="X(7,66,6)" index="369635" value="1"/>
  <variable name="X(8,5,344)" index="372711" value="1"/>
  <variable name="X(8,67,7)" index="375112" value="1"/>
  <variable name="X(9,23,384)" index="378227" value="1"/>
  <variable name="X(9,68,8)" index="380589" value="1"/>
  <variable name="X(10,57,438)" index="383757" value="1"/>
  <variable name="X(10,69,9)" index="386066" value="1"/>
  <variable name="X(11,5,385)" index="389180" value="1"/>
  <variable name="X(11,12,11)" index="391544" value="1"/>
  <variable name="X(11,22,8)" index="394279" value="1"/>
  <variable name="X(11,43,99)" index="397108" value="1"/>
  <variable name="X(11,44,43)" index="399790" value="1"/>
  <variable name="X(11,45,101)" index="402586" value="1"/>
  <variable name="X(11,54,387)" index="405610" value="1"/>
  <variable name="X(11,70,10)" index="407971" value="1"/>
  <variable name="X(12,11,548)" index="411247" value="1"/>
  <variable name="X(12,71,11)" index="413448" value="1"/>
  <variable name="X(13,21,577)" index="416752" value="1"/>
  <variable name="X(13,72,12)" index="418925" value="1"/>
  <variable name="X(14,29,610)" index="422261" value="1"/>
  <variable name="X(14,73,13)" index="424402" value="1"/>
  <variable name="X(15,27,26)" index="427153" value="1"/>
  <variable name="X(15,29,13)" index="429878" value="1"/>
  <variable name="X(15,33,73)" index="432676" value="1"/>
  <variable name="X(15,34,59)" index="435400" value="1"/>
  <variable name="X(15,45,8)" index="438087" value="1"/>
  <variable name="X(15,48,18)" index="440835" value="1"/>
  <variable name="X(15,54,1)" index="443556" value="1"/>
  <variable name="X(15,56,55)" index="446348" value="1"/>
  <variable name="X(15,74,14)" index="449045" value="1"/>
  <variable name="X(16,34,718)" index="452487" value="1"/>
  <variable name="X(16,36,719)" index="455226" value="1"/>
  <variable name="X(16,52,51)" index="457296" value="1"/>
  <variable name="X(16,75,15)" index="459998" value="1"/>
  <variable name="X(17,33,767)" index="463488" value="1"/>
  <variable name="X(17,76,16)" index="465475" value="1"/>
  <variable name="X(18,33,802)" index="468999" value="1"/>
  <variable name="X(18,55,789)" index="471724" value="1"/>
  <variable name="X(18,77,17)" index="473690" value="1"/>
  <variable name="X(19,22,846)" index="477257" value="1"/>
  <variable name="X(19,40,39)" index="479188" value="1"/>
  <variable name="X(19,42,41)" index="481928" value="1"/>
  <variable name="X(19,48,422)" index="485047" value="1"/>
  <variable name="X(19,54,838)" index="488201" value="1"/>
  <variable name="X(19,78,18)" index="490119" value="1"/>
  <variable name="X(20,22,894)" index="493733" value="1"/>
  <variable name="X(20,79,19)" index="495596" value="1"/>
  <variable name="X(21,13,12)" index="498327" value="1"/>
  <variable name="X(21,22,577)" index="501630" value="1"/>
  <variable name="X(21,80,20)" index="503811" value="1"/>
  <variable name="X(22,11,384)" index="506913" value="1"/>
  <variable name="X(22,19,400)" index="509667" value="1"/>
  <variable name="X(22,20,19)" index="512024" value="1"/>
  <variable name="X(22,21,12)" index="514755" value="1"/>
  <variable name="X(22,23,8)" index="517489" value="1"/>
  <variable name="X(22,24,23)" index="520242" value="1"/>
  <variable name="X(22,81,21)" index="522978" value="1"/>
  <variable name="X(23,9,8)" index="525703" value="1"/>
  <variable name="X(23,22,384)" index="528817" value="1"/>
  <variable name="X(23,82,22)" index="531193" value="1"/>
  <variable name="X(24,22,1095)" index="535004" value="1"/>
  <variable name="X(24,83,23)" index="536670" value="1"/>
  <variable name="X(25,36,1143)" index="540528" value="1"/>
  <variable name="X(25,84,24)" index="542147" value="1"/>
  <variable name="X(26,36,1186)" index="546047" value="1"/>
  <variable name="X(26,85,25)" index="547624" value="1"/>
  <variable name="X(27,15,1236)" index="551573" value="1"/>
  <variable name="X(27,86,26)" index="553101" value="1"/>
  <variable name="X(28,54,1290)" index="557103" value="1"/>
  <variable name="X(28,87,27)" index="558578" value="1"/>
  <variable name="X(29,14,13)" index="561302" value="1"/>
  <variable name="X(29,15,610)" index="564637" value="1"/>
  <variable name="X(29,30,29)" index="566794" value="1"/>
  <variable name="X(29,58,642)" index="570145" value="1"/>
  <variable name="X(29,88,28)" index="572269" value="1"/>
  <variable name="X(30,29,1394)" index="576373" value="1"/>
  <variable name="X(30,89,29)" index="577746" value="1"/>
  <variable name="X(31,32,31)" index="580486" value="1"/>
  <variable name="X(31,33,1399)" index="584592" value="1"/>
  <variable name="X(31,90,30)" index="585961" value="1"/>
  <variable name="X(32,31,1456)" index="590125" value="1"/>
  <variable name="X(32,91,31)" index="591438" value="1"/>
  <variable name="X(33,15,768)" index="594913" value="1"/>
  <variable name="X(33,17,16)" index="596899" value="1"/>
  <variable name="X(33,18,17)" index="599638" value="1"/>
  <variable name="X(33,31,30)" index="602389" value="1"/>
  <variable name="X(33,34,767)" index="605864" value="1"/>
  <variable name="X(33,35,34)" index="607869" value="1"/>
  <variable name="X(33,92,32)" index="610605" value="1"/>
  <variable name="X(34,1,59)" index="613370" value="1"/>
  <variable name="X(34,3,2)" index="616051" value="1"/>
  <variable name="X(34,15,1)" index="618788" value="1"/>
  <variable name="X(34,16,15)" index="621540" value="1"/>
  <variable name="X(34,33,16)" index="624279" value="1"/>
  <variable name="X(34,36,3)" index="627004" value="1"/>
  <variable name="X(34,51,50)" index="629789" value="1"/>
  <variable name="X(34,55,54)" index="632531" value="1"/>
  <variable name="X(34,93,33)" index="635248" value="1"/>
  <variable name="X(35,33,1612)" index="639565" value="1"/>
  <variable name="X(35,36,1613)" index="642304" value="1"/>
  <variable name="X(35,94,34)" index="643463" value="1"/>
  <variable name="X(36,4,3)" index="646170" value="1"/>
  <variable name="X(36,16,72)" index="648977" value="1"/>
  <variable name="X(36,25,24)" index="651667" value="1"/>
  <variable name="X(36,26,25)" index="654406" value="1"/>
  <variable name="X(36,34,169)" index="657288" value="1"/>
  <variable name="X(36,35,91)" index="659948" value="1"/>
  <variable name="X(36,37,36)" index="662631" value="1"/>
  <variable name="X(36,38,37)" index="665370" value="1"/>
  <variable name="X(36,39,38)" index="668109" value="1"/>
  <variable name="X(36,50,49)" index="670858" value="1"/>
  <variable name="X(36,54,170)" index="673717" value="1"/>
  <variable name="X(36,55,110)" index="676395" value="1"/>
  <variable name="X(36,57,9)" index="679032" value="1"/>
  <variable name="X(36,95,35)" index="681796" value="1"/>
  <variable name="X(37,36,1724)" index="686223" value="1"/>
  <variable name="X(37,55,1740)" index="688977" value="1"/>
  <variable name="X(37,96,36)" index="690011" value="1"/>
  <variable name="X(38,36,1778)" index="694491" value="1"/>
  <variable name="X(38,58,196)" index="695647" value="1"/>
  <variable name="X(38,97,37)" index="698226" value="1"/>
  <variable name="X(39,36,1806)" index="702733" value="1"/>
  <variable name="X(39,53,52)" index="703717" value="1"/>
  <variable name="X(39,58,1819)" index="708222" value="1"/>
  <variable name="X(39,98,38)" index="709179" value="1"/>
  <variable name="X(40,19,1862)" index="713741" value="1"/>
  <variable name="X(40,99,39)" index="714656" value="1"/>
  <variable name="X(41,48,1898)" index="719253" value="1"/>
  <variable name="X(41,100,40)" index="720133" value="1"/>
  <variable name="X(42,19,1938)" index="724769" value="1"/>
  <variable name="X(42,101,41)" index="725610" value="1"/>
  <variable name="X(43,11,1971)" index="730278" value="1"/>
  <variable name="X(43,54,1970)" index="733015" value="1"/>
  <variable name="X(43,102,42)" index="733825" value="1"/>
  <variable name="X(44,7,498)" index="737019" value="1"/>
  <variable name="X(44,11,306)" index="739565" value="1"/>
  <variable name="X(44,103,43)" index="742040" value="1"/>
  <variable name="X(45,11,8)" index="744743" value="1"/>
  <variable name="X(45,15,384)" index="747857" value="1"/>
  <variable name="X(45,59,58)" index="750269" value="1"/>
  <variable name="X(45,104,44)" index="752993" value="1"/>
  <variable name="X(46,48,2130)" index="757817" value="1"/>
  <variable name="X(46,105,45)" index="758470" value="1"/>
  <variable name="X(47,48,2163)" index="763326" value="1"/>
  <variable name="X(47,106,46)" index="763947" value="1"/>
  <variable name="X(48,15,1898)" index="768537" value="1"/>
  <variable name="X(48,19,18)" index="769395" value="1"/>
  <variable name="X(48,41,40)" index="772155" value="1"/>
  <variable name="X(48,46,45)" index="774898" value="1"/>
  <variable name="X(48,47,46)" index="777637" value="1"/>
  <variable name="X(48,49,48)" index="780377" value="1"/>
  <variable name="X(48,107,47)" index="783114" value="1"/>
  <variable name="X(49,48,2263)" index="788068" value="1"/>
  <variable name="X(49,108,48)" index="788591" value="1"/>
  <variable name="X(50,36,2306)" index="793587" value="1"/>
  <variable name="X(50,109,49)" index="794068" value="1"/>
  <variable name="X(51,34,2360)" index="799117" value="1"/>
  <variable name="X(51,110,50)" index="799545" value="1"/>
  <variable name="X(52,16,2415)" index="804648" value="1"/>
  <variable name="X(52,111,51)" index="805022" value="1"/>
  <variable name="X(53,39,2455)" index="810164" value="1"/>
  <variable name="X(53,112,52)" index="810499" value="1"/>
  <variable name="X(54,5,1)" index="813186" value="1"/>
  <variable name="X(54,6,5)" index="815928" value="1"/>
  <variable name="X(54,7,6)" index="818667" value="1"/>
  <variable name="X(54,11,173)" index="821572" value="1"/>
  <variable name="X(54,15,59)" index="824196" value="1"/>
  <variable name="X(54,19,75)" index="826950" value="1"/>
  <variable name="X(54,28,27)" index="829640" value="1"/>
  <variable name="X(54,36,61)" index="832412" value="1"/>
  <variable name="X(54,43,42)" index="835131" value="1"/>
  <variable name="X(54,58,57)" index="837884" value="1"/>
  <variable name="X(54,113,53)" index="840618" value="1"/>
  <variable name="X(55,18,177)" index="843480" value="1"/>
  <variable name="X(55,34,2546)" index="848587" value="1"/>
  <variable name="X(55,36,805)" index="849584" value="1"/>
  <variable name="X(55,37,789)" index="852306" value="1"/>
  <variable name="X(55,114,54)" index="854309" value="1"/>
  <variable name="X(56,15,2604)" index="859597" value="1"/>
  <variable name="X(56,115,55)" index="859786" value="1"/>
  <variable name="X(57,10,9)" index="862478" value="1"/>
  <variable name="X(57,36,438)" index="865645" value="1"/>
  <variable name="X(57,116,56)" index="868001" value="1"/>
  <variable name="X(58,29,1792)" index="872475" value="1"/>
  <variable name="X(58,38,642)" index="874063" value="1"/>
  <variable name="X(58,39,643)" index="876802" value="1"/>
  <variable name="X(58,54,2633)" index="881530" value="1"/>
  <variable name="X(58,117,57)" index="881692" value="1"/>
  <variable name="X(59,45,2689)" index="887062" value="1"/>
  <variable name="X(59,118,58)" index="887169" value="1"/>
 </variables>
</CPLEXSolution>
